Using license file /home/benedond/gurobi.lic
Using gurobi.env file
Set parameter Threads to value 1
Academic license - for non-commercial use only
Changed value of parameter TimeLimit to 300.0
   Prev: inf  Min: 0.0  Max: inf  Default: inf
Gurobi Optimizer version 9.0.1 build v9.0.1rc0 (linux64)
Optimize a model with 125 rows, 60 columns and 418 nonzeros
Model fingerprint: 0xe0279e69
Variable types: 5 continuous, 55 integer (50 binary)
Coefficient statistics:
  Matrix range     [8e-01, 6e+02]
  Objective range  [4e-03, 6e-01]
  Bounds range     [1e+00, 1e+00]
  RHS range        [1e+00, 6e+02]

---------------------------------------------------------------------------
Multi-objectives: starting optimization with 1 objectives ... 
---------------------------------------------------------------------------
---------------------------------------------------------------------------

Multi-objectives: optimize objective 1 (min avg power cons) ...
---------------------------------------------------------------------------

Optimize a model with 125 rows, 60 columns and 418 nonzeros
Variable types: 5 continuous, 55 integer (50 binary)
Coefficient statistics:
  Matrix range     [8e-01, 6e+02]
  Objective range  [4e-03, 6e-01]
  Bounds range     [1e+00, 1e+00]
  RHS range        [1e+00, 6e+02]
Presolve removed 125 rows and 60 columns
Presolve time: 0.00s
Presolve: All rows and columns removed

Explored 0 nodes (0 simplex iterations) in 0.00 seconds
Thread count was 1 (of 4 available processors)

Solution count 1: 4.05504 

Optimal solution found (tolerance 1.00e-04)
Best objective 4.055043479671e+00, best bound 4.055043479671e+00, gap 0.0000%

---------------------------------------------------------------------------
Multi-objectives: solved in 0.00 seconds, solution count 1

